NAME : random_16
COMMENT : 50 random nodes
TYPE : TSP
DIMENSION : 50
EDGE_WEIGHT_TYPE : EUC_2D
NODE_COORD_SECTION
1 48 547
2 164 844
3 322 622
4 384 51
5 97 538
6 709 996
7 172 811
8 904 557
9 692 784
10 114 807
11 211 587
12 713 217
13 957 569
14 582 351
15 440 44
16 296 467
17 25 885
18 47 919
19 998 363
20 937 512
21 386 929
22 628 712
23 197 220
24 707 517
25 333 314
26 756 973
27 638 209
28 266 127
29 694 150
30 989 443
31 986 569
32 392 849
33 642 990
34 928 256
35 723 690
36 87 972
37 357 669
38 862 401
39 154 561
40 983 889
41 677 875
42 428 435
43 834 879
44 943 653
45 386 706
46 793 170
47 491 99
48 271 196
49 940 414
50 716 663
EOF